c A SAT instance generated from a 3-CNF formula that had 20 clauses and 20 variables
p cnf 20 20
10 -15 -17 0
-16 -5 4 0
-19 -4 -7 0
14 -19 -6 0
20 -7 8 0
-3 12 16 0
7 6 9 0
-6 5 9 0
12 -11 4 0
11 17 -9 0
-2 10 14 0
3 -15 -10 0
18 20 -2 0
-17 -20 8 0
2 15 4 0
-7 2 15 0
11 16 14 0
-16 10 -20 0
-11 16 -19 0
13 10 17 0
%
0

18 42 71 5 26 34 70 86 3 67 34 72 29 56 78 78 78 95 21 33
